10
10
38
1 2 9
1 3 15
1 4 15
1 6 7
1 7 12
1 8 18
1 10 11
2 3 16
2 4 6
2 5 16
2 6 3
2 7 7
2 8 4
2 9 19
2 10 18
3 4 1
3 5 11
3 6 2
3 9 18
3 10 10
4 5 2
4 6 2
4 7 12
4 8 5
4 10 15
5 6 19
5 8 19
5 10 12
6 7 6
6 8 15
6 9 16
6 10 20
7 8 4
7 9 1
7 10 17
8 9 15
8 10 18
9 10 16
